p cnf 934 2381
c ind 925 928 909 828 920 921 922 830 912 916 0
c ind 926 931 846 842 843 863 877 914 864 882 0
c ind 932 919 924 927 851 913 911 918 923 879 0
c ind 915 836 831 835 833 878 832 845 910 834 0
c ind 907 906 929 930 917 867 870 895 897 852 0
c ind 880 883 896 893 890 892 894 891 899 900 0
c ind 871 881 874 875 901 904 903 898 886 857 0
c ind 876 859 889 905 868 902 908 869 884 872 0
c ind 854 837 850 858 873 841 847 888 862 849 0
c ind 839 840 860 861 887 856 844 865 838 855 0
c ind 853 885 848 829 866 1 0
c ret 556 688 689 690 691 692 693 694 557 695 0
c ret 696 697 698 699 700 701 702 600 703 601 0
c ret 704 705 558 706 707 708 602 709 710 711 0
c ret 712 559 713 714 715 716 717 718 719 720 0
c ret 603 721 604 722 723 724 560 725 726 727 0
c ret 728 729 730 731 732 733 734 561 562 605 0
c ret 563 735 736 737 738 739 740 741 742 606 0
c ret 743 744 745 746 747 564 607 748 749 750 0
c ret 608 751 752 753 565 754 755 756 757 758 0
c ret 548 566 759 760 761 762 567 763 764 765 0
c ret 766 609 610 767 768 568 611 769 770 771 0
c ret 772 773 774 775 569 776 777 778 570 779 0
c ret 780 781 782 783 612 784 785 786 787 788 0
c ret 789 790 791 571 792 793 794 795 613 796 0
c ret 797 798 799 800 801 802 803 804 614 572 0
c ret 805 806 807 808 809 810 811 812 573 813 0
c ret 814 615 815 616 816 817 818 819 820 821 0
c ret 822 549 574 823 824 825 826 827 575 617 0
c ret 618 619 620 576 621 622 623 624 577 578 0
c ret 625 626 579 627 628 629 580 630 631 550 0
c ret 581 632 633 634 635 636 637 638 639 582 0
c ret 640 583 584 585 641 586 551 642 643 587 0
c ret 588 644 589 645 590 591 646 647 648 592 0
c ret 552 593 649 650 651 652 653 654 655 656 0
c ret 657 553 658 659 660 661 662 663 664 665 0
c ret 666 667 668 669 554 594 670 595 671 672 0
c ret 673 596 597 674 675 676 677 555 678 679 0
c ret 680 681 682 598 683 599 684 685 686 687 0
2 -187 -200 0
2 3 -200 554 0
-2 200 0
-2 -3 187 0
-2 187 -554 0
3 160 -731 0
3 4 110 160 0
-3 -160 0
-3 -4 731 0
-3 -110 731 0
4 -69 732 0
4 5 -68 732 0
-4 -732 0
-4 -5 69 0
-4 68 69 0
5 -649 -734 0
5 6 -734 0
5 67 -734 0
-5 734 0
-5 -6 -67 649 0
6 -7 35 -36 -58 0
-6 58 0
-6 7 0
-6 36 0
-6 -35 0
7 -8 -18 0
7 -18 564 583 0
-7 18 0
-7 8 -583 0
-7 8 -564 0
8 -11 -564 0
8 9 564 0
-8 -9 564 0
-8 11 -564 0
9 -582 -603 0
9 -10 -603 0
-9 603 0
-9 10 582 0
10 -575 -576 -604 0
-10 575 0
-10 576 0
-10 604 0
9 11 12 0
11 -12 632 0
-9 -11 12 0
-11 -12 -632 0
12 13 583 0
-12 -583 0
-12 -13 0
13 14 -633 0
-13 633 0
-13 -14 0
14 15 636 0
14 15 637 0
-14 -15 0
-14 -636 -637 0
15 16 -17 583 633 0
-15 17 0
-15 -16 0
-15 -583 0
-15 -633 0
16 584 593 -640 0
-16 640 0
-16 -593 0
-16 -584 0
17 -634 636 637 0
-17 634 0
-17 -637 0
-17 -636 0
18 31 33 -564 0
18 -19 31 33 0
-18 -33 0
-18 -31 0
-18 19 564 0
19 -20 -27 0
19 -20 25 0
-19 20 0
-19 -25 27 0
20 21 22 0
20 21 574 0
-20 -21 0
-20 -22 -574 0
21 -609 610 -611 0
-21 609 0
-21 -610 0
-21 611 0
22 23 24 0
22 23 -596 -597 0
-22 -23 0
-22 -24 596 0
-22 -24 597 0
23 -572 -594 0
23 -572 -595 0
-23 572 0
-23 594 595 0
24 573 -594 -595 0
-24 595 0
-24 594 0
-24 -573 0
25 -26 625 0
-25 -625 0
-25 26 0
26 -601 620 0
26 601 619 0
-26 601 -619 0
-26 -601 -620 0
27 -28 618 0
-27 -618 0
-27 28 0
28 -30 590 0
28 -30 -601 0
28 29 -30 0
-28 30 0
-28 -29 -590 601 0
29 620 622 623 -624 0
-29 624 0
-29 -623 0
-29 -620 0
-29 -622 0
30 622 623 0
30 601 620 0
30 620 623 0
30 601 622 0
-30 -620 -622 0
-30 -601 -623 0
31 32 646 0
-31 -646 0
-31 -32 0
32 564 579 0
-32 -564 0
-32 -579 0
33 34 626 0
-33 -626 0
-33 -34 0
34 600 601 0
34 588 -601 0
-34 -600 601 0
-34 -588 -601 0
11 35 -564 0
35 -564 -579 629 0
-35 564 0
-11 -35 579 0
-11 -35 -629 0
-20 36 -37 49 -50 0
-36 50 0
20 -36 0
-36 37 0
-36 -49 0
37 -38 47 579 0
37 -38 -45 47 0
-37 38 0
-37 -47 0
-37 45 -579 0
38 -40 -42 -582 0
38 39 -40 -42 0
-38 42 0
-38 40 0
-38 -39 582 0
39 575 -583 0
-39 -575 0
-39 583 0
40 41 573 0
40 41 -572 0
40 41 574 0
-40 -41 0
-40 572 -573 -574 0
41 575 584 0
41 -575 576 0
-41 -575 -576 0
-41 575 -584 0
42 -43 44 -586 0
39 42 -43 44 0
-42 43 0
-42 -44 0
-39 -42 586 0
43 -565 -592 -612 613 0
-43 612 0
-43 -613 0
-43 565 0
-43 592 0
44 -579 614 0
44 -605 614 0
-44 -614 0
-44 579 605 0
45 46 -578 -598 0
45 46 577 -598 0
-45 598 0
-45 -46 0
-45 -577 578 0
46 580 -581 0
46 580 599 0
-46 -580 0
-46 581 -599 0
47 -48 -567 0
47 -567 569 -571 0
-47 567 0
-47 48 -569 0
-47 48 571 0
48 -566 568 -569 570 0
-48 569 0
-48 -570 0
-48 566 0
-48 -568 0
-9 49 -583 0
-49 583 0
9 -49 0
-34 50 -52 -55 0
50 51 -52 -55 0
-50 55 0
-50 52 0
34 -50 -51 0
51 587 -602 0
-51 -587 0
-51 602 0
52 53 54 579 0
52 53 54 -605 0
-52 -54 0
-52 -53 0
-52 -579 605 0
53 584 593 0
-53 -584 0
-53 -593 0
54 590 -591 0
-54 -590 0
-54 591 0
55 56 57 0
55 56 575 0
55 56 582 0
-55 -56 0
-55 -57 -575 -582 0
56 587 -592 0
56 587 -588 -589 0
-56 -587 0
-56 588 592 0
-56 589 592 0
57 -583 -584 585 0
-57 583 0
-57 584 0
-57 -585 0
58 -59 -63 590 0
58 -59 62 -63 0
-58 63 0
-58 59 0
-58 -62 -590 0
-19 59 -626 0
-19 59 -60 592 0
19 -59 0
-59 -592 626 0
-59 60 626 0
60 -61 627 0
-60 -627 0
-60 61 0
61 621 622 0
61 -601 622 0
61 589 601 -622 0
-61 -589 -622 0
-61 -601 -622 0
-61 601 -621 622 0
-26 -27 62 0
-27 -61 62 0
27 -62 0
26 61 -62 0
25 49 63 -64 0
49 63 -64 590 0
-63 64 0
-49 -63 0
-25 -63 -590 0
34 64 65 -66 -626 0
-64 66 0
-64 -65 0
-64 626 0
-34 -64 0
65 -579 629 0
65 -629 646 0
65 -564 646 0
-65 579 -646 0
-65 -629 -646 0
-65 564 579 629 0
66 -617 -644 645 0
-66 617 0
-66 644 0
-66 -645 0
67 563 -645 0
67 -563 645 0
-67 -563 -645 0
-67 563 645 0
68 733 -734 0
-36 68 617 733 0
-68 -733 0
-68 -617 734 0
36 -68 734 0
69 -70 674 -733 0
-69 70 0
-69 733 0
-69 -674 0
-6 70 -71 90 -104 0
-70 104 0
6 -70 0
-70 71 0
-70 -90 0
71 72 77 81 -87 0
-71 87 0
-71 -81 0
-71 -72 0
-71 -77 0
72 73 -74 0
-72 -73 0
-72 74 0
73 562 564 583 0
-73 -562 0
-73 -583 0
-73 -564 0
74 -75 -562 0
8 74 562 0
-8 -74 562 0
-74 75 -562 0
75 -76 -657 0
8 75 76 0
-8 -75 76 0
-75 -76 657 0
13 76 564 583 0
-76 -564 0
-13 -76 0
-76 -583 0
-21 77 -78 0
77 -78 -79 -574 0
-77 78 0
21 -77 79 0
21 -77 574 0
78 562 564 0
-78 -562 0
-78 -564 0
79 -562 665 0
79 -80 562 0
-79 -562 -665 0
-79 80 562 0
80 -564 641 0
-22 80 564 0
-80 -564 -641 0
22 -80 564 0
81 -82 -84 0
-81 82 0
-81 84 0
82 -83 651 0
82 643 651 0
-82 -651 0
-82 83 -643 0
-26 83 564 0
-83 -564 0
26 -83 0
84 85 562 0
-84 -562 0
-84 -85 0
-83 85 86 650 0
-83 85 643 650 0
83 -85 0
-85 -650 0
-85 -86 -643 0
28 86 564 0
-86 -564 0
-28 -86 0
87 -88 -671 0
87 -88 -89 0
-87 88 0
-87 89 671 0
88 -652 0
-34 88 -643 0
-34 88 653 0
34 -88 652 0
-88 643 652 -653 0
-32 89 562 0
-89 -562 0
32 -89 0
-75 90 -91 0
90 97 -562 0
-75 90 -562 0
90 -91 97 0
75 -90 -97 0
-90 91 562 0
91 92 96 0
-8 91 92 -95 0
-91 -92 0
8 -91 -96 0
-91 95 -96 0
92 564 658 664 0
92 93 -564 658 -664 0
-92 -564 664 0
-92 -93 -664 0
-92 -658 0
-92 564 -664 0
93 -94 -564 -661 0
93 -94 564 -662 0
-93 94 0
-93 -564 661 0
-93 564 662 0
94 611 -659 0
94 -659 -660 0
-94 659 0
-94 -611 660 0
-80 -85 95 663 0
-80 95 652 663 0
80 -95 0
-95 -663 0
85 -95 -652 0
-93 96 -564 -658 0
-96 564 0
-96 658 0
93 -96 0
-88 97 -98 -101 -103 0
-97 103 0
88 -97 0
-97 101 0
-97 98 0
-85 98 99 0
82 98 99 0
-98 -99 0
-82 85 -98 0
99 100 652 0
-99 -652 0
-99 -100 0
-34 100 -643 0
100 643 653 0
-100 643 -653 0
34 -100 -643 0
101 102 -564 0
-20 101 102 0
-101 -102 0
20 -101 564 0
32 102 654 0
-102 -654 0
-32 -102 0
21 102 103 -562 564 0
-102 -103 0
-21 -103 0
-103 562 0
-103 -564 0
-7 77 -98 104 -105 0
-104 105 0
7 -104 0
98 -104 0
-77 -104 0
-25 -101 105 -106 0
85 -101 105 -106 0
-105 106 0
101 -105 0
25 -85 -105 0
100 102 106 -107 -108 0
-100 -106 0
-106 108 0
-106 107 0
-102 -106 0
-67 107 -671 0
-67 107 562 654 0
67 -107 0
-107 -654 671 0
-107 -562 671 0
-34 108 -109 0
108 -109 -652 0
-108 109 0
34 -108 652 0
109 -561 -649 -669 670 0
-109 669 0
-109 -670 0
-109 561 0
-109 649 0
110 -111 -149 697 -732 0
-110 -697 0
-110 149 0
-110 111 0
-110 732 0
-70 111 112 140 -142 0
-111 142 0
-111 -140 0
70 -111 0
-111 -112 0
112 -113 126 0
112 129 -560 0
112 126 -560 0
112 -113 129 0
-112 113 560 0
-112 -126 -129 0
113 114 125 0
74 113 114 -118 0
-113 -114 0
-74 -113 -125 0
-113 118 -125 0
-78 114 684 687 0
78 114 115 684 -687 0
-78 -114 -687 0
78 -114 -115 0
-114 -684 0
78 -114 687 0
-94 115 -116 0
94 -115 0
-115 116 0
116 -562 -685 0
116 -117 562 0
-116 117 562 0
-116 -562 685 0
117 -564 -661 0
117 564 -662 0
-117 564 662 0
-117 -564 661 0
-79 118 -119 686 0
-79 118 677 686 0
79 -118 0
-118 -686 0
-118 119 -677 0
119 122 668 675 0
119 -120 122 675 0
-119 -122 0
-119 -675 0
-119 120 -668 0
120 -562 668 0
120 -121 562 0
-120 -562 -668 0
-120 121 562 0
86 121 564 0
86 121 643 0
-86 -121 0
-121 -564 -643 0
122 123 124 0
-122 -123 0
-122 -124 0
123 643 667 0
-123 -643 0
-123 -667 0
-83 124 562 0
-123 124 -562 0
123 -124 -562 0
83 -124 562 0
78 -115 125 -684 0
-125 684 0
-78 -125 0
115 -125 0
74 126 127 0
126 -127 683 0
-74 -126 127 0
-126 -127 -683 0
-73 127 -128 0
-73 -78 127 633 0
73 -127 0
-127 128 -633 0
78 -127 128 0
-14 128 633 0
-14 128 583 0
14 -128 0
-128 -583 -633 0
129 -130 -136 -137 -139 0
-129 139 0
-129 130 0
-129 137 0
-129 136 0
130 -131 135 0
-130 131 0
-130 -135 0
131 132 134 0
-119 131 132 0
-131 -132 0
119 -131 -134 0
132 133 677 0
-132 -677 0
-132 -133 0
-34 133 -668 0
133 668 679 0
-133 668 -679 0
34 -133 -668 0
-124 134 676 0
134 668 676 0
-134 -676 0
124 -134 -668 0
89 135 680 0
-135 -680 0
-89 -135 0
77 135 136 0
-77 -136 0
-135 -136 0
137 -677 0
-34 -133 137 0
-133 137 -138 0
133 -137 677 0
34 -137 138 677 0
-123 138 678 0
-138 -678 0
123 -138 0
21 -78 139 -560 0
-139 560 0
-21 -139 0
78 -139 0
140 141 -560 0
73 140 141 0
-140 -141 0
-73 -140 560 0
-126 141 -560 0
74 141 560 0
-74 -141 560 0
126 -141 -560 0
142 143 -146 -694 0
142 143 -146 -148 0
-142 146 0
-142 -143 0
-142 148 694 0
-21 143 -144 0
143 -144 145 -574 0
-143 144 0
21 -143 -145 0
21 -143 574 0
144 560 562 564 0
-144 -560 0
-144 -564 0
-144 -562 0
145 -560 -688 0
79 145 560 0
-145 -560 688 0
-79 -145 560 0
-119 -137 146 0
-137 146 147 0
137 -146 0
119 -146 -147 0
-134 147 560 0
-147 -560 0
134 -147 0
-32 148 560 562 0
32 -148 0
-148 -562 0
-148 -560 0
-71 72 140 149 -150 0
71 -149 0
-140 -149 0
-72 -149 0
-149 150 0
-130 143 150 -151 -159 0
-150 159 0
130 -150 0
-150 151 0
-143 -150 0
119 -146 151 -153 0
-146 151 -152 -153 0
-151 153 0
146 -151 0
-119 -151 152 0
-82 152 562 0
-152 -562 0
82 -152 0
153 -154 -157 -677 0
-100 153 -154 -157 0
-153 157 0
-153 154 0
100 -153 677 0
133 154 -156 -694 0
133 154 -155 -156 0
-154 156 0
-133 -154 0
-154 155 694 0
155 560 680 0
-155 -560 0
-155 -680 0
156 -559 -674 -692 693 0
-156 692 0
-156 -693 0
-156 559 0
-156 674 0
157 158 -560 0
135 157 158 0
-157 -158 0
-135 -157 560 0
34 138 158 677 0
-158 -677 0
-138 -158 0
-34 -158 0
-131 -136 159 0
131 -159 0
136 -159 0
160 -161 -176 713 -731 0
-160 -713 0
-160 176 0
-160 161 0
-160 731 0
161 -162 -174 175 709 0
-161 -709 0
-161 -175 0
-161 174 0
-161 162 0
-148 162 -163 0
162 -163 -710 0
-162 163 0
148 -162 710 0
140 143 163 -164 0
-163 164 0
-143 -163 0
-140 -163 0
164 -165 171 0
164 169 171 0
-164 -171 0
-164 165 -169 0
165 -166 -167 0
165 -167 691 0
-165 167 0
-165 166 -691 0
166 -560 691 0
-120 166 560 0
-166 -560 -691 0
120 -166 560 0
167 -168 698 0
-124 167 560 698 0
-167 -698 0
-167 168 -560 0
124 -167 168 0
168 668 690 0
-168 -668 0
-168 -690 0
169 -170 699 0
169 691 699 0
-169 -699 0
-169 170 -691 0
-124 170 560 0
-168 170 -560 0
168 -170 -560 0
124 -170 560 0
171 172 700 0
34 171 173 700 0
-171 -700 0
-34 -171 -172 0
-171 -172 -173 0
-34 172 -691 0
172 691 702 0
-172 691 -702 0
34 -172 -691 0
-168 173 701 0
-173 -701 0
168 -173 0
-148 -163 174 0
-163 174 -703 0
163 -174 0
148 -174 703 0
175 -703 710 0
-175 703 0
-175 -710 0
-174 176 177 -178 0
-174 176 -178 -185 0
174 -176 0
-176 178 0
-176 -177 185 0
-94 -116 177 560 0
-94 177 -560 -706 0
94 -177 0
-177 -560 706 0
116 -177 560 0
-111 -149 -164 178 -179 0
-178 179 0
111 -178 0
164 -178 0
149 -178 0
165 179 180 -181 0
-147 179 180 -181 0
-179 181 0
-179 -180 0
147 -165 -179 0
177 180 -558 0
-180 558 0
-177 -180 0
172 181 -182 -700 0
-133 172 181 -182 0
-181 182 0
-172 -181 0
133 -181 700 0
182 183 -184 -557 709 0
182 183 -184 557 -709 0
-182 184 0
-182 557 709 0
-182 -183 0
-182 -557 -709 0
-78 183 560 0
-183 -560 0
78 -183 0
184 -697 -703 -708 0
-184 697 0
-184 703 0
-184 708 0
185 186 -558 0
141 185 -558 0
-185 558 0
-141 -185 -186 0
145 -165 186 707 0
145 186 700 707 0
-145 -186 0
-186 -707 0
165 -186 -700 0
-161 -176 187 188 -192 0
-187 192 0
161 -187 0
176 -187 0
-187 -188 0
-177 188 556 0
-141 -177 188 -189 0
177 -188 0
-188 189 -556 0
141 -188 -556 0
145 189 -190 724 0
145 189 718 724 0
-145 -189 0
-189 -724 0
-189 190 -718 0
190 191 714 716 0
-166 190 191 714 0
-190 -714 0
-190 -191 0
166 -190 -716 0
170 191 -691 0
170 191 -715 0
-170 -191 0
-191 691 715 0
143 -162 192 -193 -198 0
-143 -192 0
-192 198 0
-192 193 0
162 -192 0
193 194 -195 556 0
-177 193 194 -195 0
-193 195 0
-193 -194 0
177 -193 -556 0
-34 194 -716 0
194 716 720 0
-194 716 -720 0
34 -194 -716 0
195 -196 -197 -554 -555 0
-195 197 0
-195 554 0
-195 196 0
-195 555 0
196 -713 -718 -721 -725 0
-196 725 0
-196 713 0
-196 721 0
-196 718 0
144 197 726 -727 730 0
-197 727 0
-144 -197 0
-197 -726 0
-197 -730 0
-169 -190 198 0
190 198 199 0
169 -190 -198 0
190 -198 -199 0
-170 199 717 0
199 716 717 0
-199 -717 0
170 -199 -716 0
200 201 -270 -744 0
200 201 -267 -270 0
-200 270 0
-200 -201 0
-200 267 744 0
201 209 -549 0
201 -209 -214 0
201 -202 209 0
201 -209 549 0
-201 -209 214 -549 0
-201 202 209 549 0
202 -203 -803 0
202 203 803 0
-202 -203 803 0
-202 203 -803 0
203 204 -208 0
-203 -204 0
-203 208 0
204 -205 -206 0
183 204 205 0
204 -205 -207 0
-183 -204 205 0
-204 -205 206 207 0
205 554 731 732 0
-205 -554 0
-205 -732 0
-205 -731 0
78 206 -733 0
-206 733 0
-78 -206 0
207 -564 -734 0
-207 564 0
-207 734 0
208 551 553 0
-208 -551 0
-208 -553 0
203 209 -210 0
-203 -209 0
-209 210 0
210 -211 -213 0
-210 211 0
-210 213 0
211 -551 -801 0
211 -212 551 0
-211 212 551 0
-211 -551 801 0
212 553 -755 0
212 -553 -780 0
-212 -553 780 0
-212 553 755 0
213 -660 -739 0
213 -739 742 0
-213 739 0
-213 660 -742 0
214 -234 -235 0
214 -215 -235 0
-214 235 0
-214 215 234 0
215 -216 551 0
215 -228 -551 0
-215 228 -551 0
-215 216 551 0
216 -217 -553 0
216 553 748 0
-216 553 -748 0
-216 217 -553 0
217 218 748 0
217 -218 751 0
-217 -218 -751 0
-217 218 -748 0
218 -219 -224 0
218 -224 752 0
-218 224 0
-218 219 -752 0
205 219 -220 0
-205 219 -222 0
-205 219 -221 0
205 -219 220 0
-205 -219 221 222 0
78 -128 220 0
-78 220 560 633 0
-128 220 -560 0
78 128 -220 0
128 -220 -560 0
-78 -220 560 -633 0
207 221 633 733 0
-128 -207 221 733 0
-221 -733 0
207 -221 -633 0
128 -207 -221 0
222 -223 -733 0
-222 733 0
-222 223 0
-78 223 633 0
78 -128 223 0
-78 -223 -633 0
78 128 -223 0
224 225 753 0
224 226 750 0
224 225 226 0
224 750 753 0
-224 -225 -750 0
-224 -226 -753 0
204 225 -635 0
-225 635 0
-204 -225 0
183 205 226 0
-205 226 -227 0
205 226 -583 0
-205 -226 227 0
-183 205 -226 583 0
73 227 -733 0
227 -583 733 0
-207 227 733 0
-73 -227 -733 0
207 -227 583 733 0
-216 228 229 0
228 -229 778 0
-228 -229 -778 0
216 -228 229 0
229 -230 -231 0
229 -231 752 0
-229 231 0
-229 230 -752 0
-219 230 553 0
-230 -553 0
219 -230 0
231 750 753 0
231 -232 -233 0
231 -233 750 0
231 -232 753 0
-231 232 -750 0
-231 233 -753 0
232 -553 750 0
-204 232 553 0
232 553 635 0
-232 -553 -750 0
204 -232 553 -635 0
226 233 553 0
233 -553 753 0
-233 -553 -753 0
-226 -233 553 0
234 743 744 757 0
-234 -743 0
-234 -757 0
-234 -744 0
235 261 795 802 0
235 -236 261 802 0
-235 -261 0
-235 -802 0
-235 236 -795 0
236 246 786 793 0
236 -237 246 793 0
-236 -246 0
-236 -793 0
-236 237 -786 0
237 -241 551 0
237 -551 786 0
237 -238 551 0
-237 -551 -786 0
-237 238 241 551 0
-166 238 239 553 0
-205 238 239 553 0
-238 -553 0
-238 -239 0
166 205 -238 0
120 -205 239 -733 0
-205 239 -240 733 0
205 -239 0
-239 240 733 0
-120 -239 -733 0
-207 240 -643 0
28 207 240 0
-28 207 -240 0
-207 -240 643 0
241 242 -553 0
-241 553 0
-241 -242 0
242 -554 -762 0
242 -245 554 0
242 -243 554 0
-242 -554 762 0
-242 243 245 554 0
243 -691 731 -732 0
243 244 731 732 0
-243 -731 0
-243 -244 732 0
-243 691 -732 0
244 668 -733 0
244 643 733 -734 0
-244 -668 -733 0
-244 -643 733 0
-244 733 734 0
245 -716 -731 0
-245 716 0
-245 731 0
246 247 248 0
-246 -247 0
-246 -248 0
242 247 785 0
-247 -785 0
-242 -247 0
248 -249 551 0
-248 -551 0
-248 249 0
249 254 -553 0
249 -250 254 0
-249 -254 0
-249 250 553 0
-170 250 251 553 0
-205 250 251 553 0
-250 -553 0
-250 -251 0
170 205 -250 0
124 -205 251 252 0
-205 251 252 733 0
205 -251 0
-251 -252 0
-124 -251 -733 0
-26 252 -253 0
26 -252 0
-252 253 0
207 253 733 0
-253 -733 0
-207 -253 0
250 254 -255 0
-250 -254 0
-254 255 0
255 256 -716 0
255 256 -761 0
255 256 554 0
-255 -256 0
-255 -554 716 761 0
256 -258 554 731 0
256 -257 554 -731 0
-256 -554 0
-256 257 -731 0
-256 258 731 0
257 691 715 0
-257 -691 0
-257 -715 0
-168 258 -732 0
258 -260 732 0
258 -259 732 0
168 -258 -732 0
-258 259 260 732 0
-61 259 733 734 0
61 -259 0
-259 -734 0
-259 -733 0
-123 260 -733 0
-260 733 0
123 -260 0
261 -551 -783 0
261 -262 551 0
-261 262 551 0
-261 -551 783 0
262 263 -759 0
262 263 553 0
-262 -263 0
-262 -553 759 0
263 264 553 0
-263 -553 0
-263 -264 0
-205 264 -265 0
-145 205 264 0
-205 -264 265 0
145 205 -264 0
79 265 -733 0
265 -266 733 0
-79 -265 -733 0
-265 266 733 0
-207 266 -641 0
22 207 266 0
-22 207 -266 0
-207 -266 641 0
267 -269 -745 0
215 267 268 -745 0
-267 745 0
-215 -267 269 0
-267 -268 269 0
268 551 553 749 0
-268 -551 0
-268 -749 0
-268 -553 0
269 -553 753 0
226 269 551 553 0
269 -551 753 0
-269 -551 -753 0
-226 -269 551 553 0
-269 -553 -753 0
270 280 -412 0
-215 270 -271 -412 0
215 270 271 -412 0
-270 412 0
215 -270 -271 -280 0
-215 -270 271 -280 0
271 -274 279 0
271 -272 274 0
-271 -274 -279 0
-271 272 274 0
272 -847 -868 0
272 -273 -868 -869 0
-272 868 0
-272 847 869 0
-272 273 847 0
273 -840 -841 0
-273 840 0
-273 841 0
274 848 898 0
274 -275 848 0
-274 -848 0
-274 275 -898 0
275 276 901 0
275 276 902 0
-275 -276 0
-275 -901 -902 0
276 277 -278 848 898 0
-276 278 0
-276 -277 0
-276 -848 0
-276 -898 0
277 849 858 -905 0
-277 905 0
-277 -858 0
-277 -849 0
278 -899 901 902 0
-278 899 0
-278 -902 0
-278 -901 0
279 829 922 0
279 -829 897 0
-279 -829 -897 0
-279 829 -922 0
280 -281 285 288 -298 0
280 -281 -285 -288 -298 0
-280 298 0
-280 -285 288 0
-280 281 0
-280 285 -288 0
281 -282 -284 752 0
281 -283 -284 -752 0
-281 284 0
-281 283 -752 0
-281 282 752 0
-275 282 898 0
-275 282 848 0
275 -282 0
-282 -848 -898 0
283 -551 -752 0
230 283 -752 0
230 283 551 553 0
-283 -551 752 0
-230 -283 551 0
-283 -553 752 0
-261 284 -925 0
261 284 925 0
-261 -284 925 0
261 -284 -925 0
285 286 810 812 0
-237 285 286 810 0
-285 -810 0
-285 -286 0
237 -285 -812 0
286 -287 -811 0
286 -287 -786 0
-286 287 0
-286 786 811 0
248 287 551 0
247 248 287 0
-248 -287 0
-247 -287 -551 0
288 289 -297 928 0
288 -289 -294 -297 0
-288 297 0
-288 -289 294 0
-288 289 -928 0
289 290 -930 0
-289 930 0
-289 -290 0
290 -829 908 0
290 -291 829 0
-290 -829 -908 0
-290 291 829 0
291 -293 855 0
291 -293 -866 0
291 292 -293 0
-291 293 0
-291 -292 -855 866 0
292 885 887 888 -889 0
-292 889 0
-292 -888 0
-292 -885 0
-292 -887 0
293 887 888 0
293 866 885 0
293 885 888 0
293 866 887 0
-293 -885 -887 0
-293 -866 -888 0
294 -295 908 915 0
-290 294 -295 915 0
-294 295 0
-294 -915 0
290 -294 -908 0
295 -296 829 0
-295 -829 0
-295 296 0
296 -866 885 0
296 866 884 0
-296 866 -884 0
-296 -866 -885 0
297 908 929 0
-297 -908 0
-297 -929 0
287 -297 298 -299 -301 0
-287 297 298 -299 -301 0
-298 301 0
287 297 -298 0
-298 299 0
-287 -297 -298 0
299 300 -930 0
-237 299 300 0
-299 -300 0
237 -299 930 0
287 300 813 0
300 812 813 0
-300 -813 0
-287 -300 -812 0
237 301 302 -303 0
301 302 -303 930 0
-301 303 0
-301 -302 0
-237 -301 -930 0
-282 -283 302 0
282 -302 0
283 -302 0
303 -304 -311 -403 876 0
303 304 -311 -403 -876 0
-303 403 0
-303 304 876 0
-303 311 0
-303 -304 -876 0
208 304 742 0
-208 304 305 309 0
-208 -304 -305 0
208 -304 -742 0
-208 -304 -309 0
305 -307 -823 0
-205 305 -306 -823 0
-305 823 0
205 -305 307 0
-305 306 307 0
306 733 734 0
-306 -733 0
-306 -734 0
307 -308 562 0
-205 307 -308 733 0
-307 308 0
205 -307 -562 0
-307 -562 -733 0
-205 308 564 0
308 560 564 0
-308 -564 0
205 -308 -560 0
-207 309 -611 0
183 309 310 -611 0
-309 611 0
-183 207 -309 0
207 -309 -310 0
-78 -205 310 0
-205 310 733 0
205 -310 0
78 -310 -733 0
269 311 -312 -319 -320 0
-269 -311 0
-311 320 0
-311 319 0
-311 312 0
312 313 315 822 0
203 312 313 315 0
-312 -315 0
-312 -313 0
-203 -312 -822 0
-208 313 -314 0
208 -313 0
-313 314 0
204 314 -574 0
-314 574 0
-204 -314 0
-208 315 -316 0
208 -315 0
-315 316 0
-205 316 -317 0
-148 205 316 0
-205 316 -318 0
148 205 -316 0
-205 -316 317 318 0
-253 317 579 0
-317 -579 0
253 -317 0
-89 318 -733 0
-318 733 0
89 -318 0
271 319 -551 0
-232 271 319 0
-271 -319 0
232 -319 551 0
320 321 326 327 -333 0
-320 333 0
-320 -327 0
-320 -321 0
-320 -326 0
321 -322 -855 0
321 -325 -855 0
-321 855 0
-321 322 325 0
322 -323 -324 0
-296 322 -324 0
-322 324 0
296 -322 323 0
323 886 887 0
323 -866 887 0
323 854 866 -887 0
-323 -854 -887 0
-323 -866 -887 0
-323 866 -886 887 0
-291 324 883 0
-324 -883 0
291 -324 0
-296 325 890 0
-325 -890 0
296 -325 0
208 326 740 0
204 -208 326 609 0
208 -326 -740 0
-204 -208 -326 0
-208 -326 -609 0
204 327 -328 329 -330 0
-327 328 0
-327 -329 0
-204 -327 0
-327 330 0
-203 328 596 0
-328 -596 0
203 -328 0
329 -595 -597 0
329 573 -595 -607 0
-329 595 0
-329 -573 597 0
-329 597 607 0
330 331 332 596 0
330 -331 573 596 0
-330 -596 0
-330 331 -332 0
-330 -331 -573 0
331 -574 -608 0
-331 574 0
-331 608 0
332 -597 -607 0
-332 597 0
-332 607 0
328 333 -334 -340 -343 0
-328 -333 0
-333 343 0
-333 340 0
-333 334 0
211 334 335 339 926 0
-211 334 335 339 -926 0
-334 -335 0
211 -334 -926 0
-334 -339 0
-211 -334 926 0
335 336 -337 0
-335 -336 0
-335 337 0
-34 336 -812 0
336 812 816 0
-336 812 -816 0
34 -336 -812 0
337 -338 -908 0
337 908 918 0
-337 908 -918 0
-337 338 -908 0
338 865 866 0
338 853 -866 0
-338 -865 866 0
-338 -853 -866 0
-272 339 -848 0
-339 848 0
272 -339 0
325 340 341 0
340 341 -829 0
-322 340 341 0
-340 -341 0
322 -325 -340 829 0
34 341 -342 0
34 -338 341 0
34 341 917 0
-34 -341 0
338 -341 342 -917 0
342 891 -892 0
323 342 891 0
-342 -891 0
-323 -342 892 0
343 344 -345 -346 -380 0
-343 -344 0
-343 380 0
-343 346 0
-343 345 0
324 -325 344 0
-324 -344 0
325 -344 0
203 -337 345 0
203 336 345 -917 0
-203 -345 0
-336 337 -345 0
337 -345 917 0
346 -347 -366 -370 -375 0
-346 375 0
-346 347 0
-346 370 0
-346 366 0
347 -348 -359 -361 -363 0
-347 363 0
-347 348 0
-347 361 0
-347 359 0
348 -349 -354 -357 -358 0
-348 358 0
-348 349 0
-348 357 0
-348 354 0
349 -350 -351 -352 -353 0
-349 353 0
-349 350 0
-349 352 0
-349 351 0
350 -740 -743 -858 0
350 -740 -743 -849 0
-350 740 0
-350 743 0
-350 849 858 0
351 -739 -878 0
351 -830 923 0
351 -739 -830 0
351 -878 923 0
-351 739 -923 0
-351 830 878 0
352 829 -857 -877 878 0
-352 -829 0
-352 -878 0
-352 877 0
-352 857 0
353 -753 -757 -817 824 0
-353 817 0
-353 -824 0
-353 753 0
-353 757 0
354 355 356 826 930 0
354 355 356 -826 -930 0
-354 -355 0
-354 -826 930 0
-354 -356 0
-354 826 -930 0
355 -814 917 0
-355 814 0
-355 -917 0
356 -840 841 0
-356 840 0
-356 -841 0
357 -855 -879 0
357 856 870 0
357 -855 870 0
357 856 -879 0
-357 855 -856 0
-357 -870 879 0
358 750 -923 0
358 551 739 0
358 551 -923 0
358 739 750 0
-358 -551 -750 0
-358 -739 923 0
359 -360 -592 -857 0
297 359 592 857 0
359 -360 592 857 0
297 359 -592 -857 0
-359 592 -857 0
-359 -592 857 0
-297 -359 360 0
360 812 825 0
-360 -812 0
-360 -825 0
361 362 848 0
361 362 -840 0
361 362 -851 0
-361 -362 0
-361 840 -848 851 0
362 837 -838 -839 0
-362 839 0
-362 838 0
-362 -837 0
268 338 363 -364 365 0
-268 -363 0
-363 -365 0
-363 364 0
-338 -363 0
364 -882 -909 910 -914 0
-364 914 0
-364 882 0
-364 909 0
-364 -910 0
365 -874 875 -876 0
-365 874 0
-365 -875 0
-365 876 0
366 367 368 -829 0
365 366 367 368 0
-366 -368 0
-366 -367 0
-365 -366 829 0
338 367 891 0
-367 -891 0
-338 -367 0
368 -369 -848 -849 850 0
-368 369 0
-368 848 0
-368 849 0
-368 -850 0
369 -840 -847 0
-369 840 0
-369 847 0
370 -371 -372 828 -910 0
370 -371 -372 -828 910 0
-370 372 0
-370 828 910 0
-370 371 0
-370 -828 -910 0
371 -640 -924 0
371 820 905 0
371 905 -924 0
371 -640 820 0
-371 -820 924 0
-371 640 -905 0
372 373 374 742 876 0
372 373 374 -742 -876 0
-372 -373 0
-372 -742 876 0
-372 -374 0
-372 742 -876 0
373 814 -917 0
-373 -814 0
-373 917 0
374 820 -924 0
-374 -820 0
-374 924 0
375 -376 -377 -840 0
375 -376 -377 -849 0
-375 377 0
-375 376 0
-375 840 849 0
376 -746 764 844 0
376 -746 764 -870 0
-376 746 0
-376 -764 0
-376 -844 870 0
377 -378 379 -905 0
377 -378 379 640 0
-377 378 0
-377 -379 0
-377 -640 905 0
378 830 857 0
378 -852 878 0
378 830 -852 0
378 857 878 0
-378 -830 -878 0
-378 852 -857 0
379 -844 894 0
-379 844 0
-379 -894 0
380 -381 -390 399 -400 0
-380 400 0
-380 381 0
-380 390 0
-380 -399 0
381 384 -387 844 0
381 -382 384 -387 0
-381 387 0
-381 -384 0
-381 382 -844 0
382 -383 -845 -863 0
382 -383 846 -863 0
-382 383 0
-382 863 0
-382 845 -846 0
383 -843 -864 0
383 842 -845 0
383 -843 -845 0
383 842 -864 0
-383 845 864 0
-383 -842 843 0
384 385 -386 0
384 -386 -861 -862 0
-384 386 0
-384 -385 862 0
-384 -385 861 0
385 838 -859 -860 0
-385 860 0
-385 859 0
-385 -838 0
386 837 -839 0
386 -839 859 860 0
-386 839 0
-386 -837 -860 0
-386 -837 -859 0
387 388 -891 0
-338 387 388 857 0
-387 -388 0
-387 -857 891 0
338 -387 891 0
388 -389 -832 0
388 -832 834 -836 0
-388 832 0
-388 389 -834 0
-388 389 836 0
389 -831 833 -834 835 0
-389 834 0
-389 -835 0
-389 831 0
-389 -833 0
390 -391 -393 -395 -397 0
-390 397 0
-390 391 0
-390 395 0
-390 393 0
391 392 853 0
391 392 -852 0
391 392 854 0
-391 -392 0
-391 852 -853 -854 0
392 786 811 815 0
-392 -786 0
-392 -815 0
-392 -811 0
393 660 -919 927 0
393 -394 -660 -927 0
393 -394 660 927 0
393 -660 -919 -927 0
-393 -660 927 0
-393 660 -927 0
-393 394 919 0
394 829 844 0
-394 -829 0
-394 -844 0
395 396 -911 0
395 396 829 894 0
-395 -396 0
-395 -894 911 0
-395 -829 911 0
297 396 812 825 0
-396 -812 0
-297 -396 0
-396 -825 0
397 398 -911 0
397 398 829 844 0
-397 -398 0
-397 -844 911 0
-397 -829 911 0
398 840 847 -848 0
-398 848 0
-398 -847 0
-398 -840 0
-34 338 399 0
338 399 852 -867 0
-338 -399 0
34 -399 -852 0
34 -399 867 0
400 -401 402 -829 0
379 400 -401 402 0
-400 401 0
-400 -402 0
-379 -400 829 0
401 -744 -745 750 0
-401 744 0
-401 745 0
-401 -750 0
-208 402 741 0
-402 -741 0
208 -402 0
403 -404 -407 0
339 403 -407 829 0
-403 407 0
-339 -403 404 0
-403 404 -829 0
272 274 404 -405 0
-274 404 -405 897 0
-404 405 0
-272 274 -404 0
-274 -404 -897 0
344 367 384 405 -406 0
-405 406 0
-384 -405 0
-344 -405 0
-367 -405 0
365 406 -829 844 0
365 406 -829 -894 0
-406 829 0
-365 -406 0
-406 -844 894 0
-294 407 408 890 0
294 407 408 411 0
-407 -408 0
294 -407 -411 0
-294 -407 -890 0
408 -409 -410 0
408 409 410 0
-408 409 -410 0
-408 -409 410 0
-128 409 827 0
-409 -827 0
128 -409 0
410 -902 -932 0
410 902 -931 932 0
-410 931 932 0
-410 902 -932 0
-410 -902 932 0
-295 411 916 0
411 908 916 0
-411 -916 0
295 -411 -908 0
412 -432 -437 0
-228 412 -413 -437 0
-412 437 0
228 -412 432 0
-412 413 432 0
413 -414 -421 426 -428 0
-413 428 0
-413 414 0
-413 421 0
-413 -426 0
414 -415 -420 0
414 -415 419 0
-414 415 0
-414 -419 420 0
415 416 -772 0
415 416 417 -418 0
-415 -416 0
-415 418 772 0
-415 -417 772 0
416 745 746 0
-416 -745 0
-416 -746 0
34 417 -773 0
34 -255 417 0
-34 -417 0
255 -417 773 0
-34 -242 418 0
242 418 774 0
242 -418 -774 0
34 -242 -418 0
242 419 771 0
-249 419 771 0
-419 -771 0
-242 249 -419 0
-238 254 420 770 0
242 254 420 770 0
-420 -770 0
-254 -420 0
238 -242 -420 0
421 422 423 0
421 422 -553 0
-421 -422 0
-421 -423 553 0
422 743 -744 0
-422 -743 0
-422 744 0
423 424 741 -742 0
423 424 -425 -741 0
-423 -424 0
-423 425 -741 0
-423 741 742 0
204 424 609 0
-424 -609 0
-204 -424 0
425 660 -739 740 0
-425 -660 0
-425 739 0
-425 -740 0
426 427 775 0
-426 -775 0
-426 -427 0
-316 427 553 0
-427 -553 0
316 -427 0
428 -429 -430 431 -551 0
-428 430 0
-428 -431 0
-428 551 0
-428 429 0
204 429 553 0
-429 -553 0
-204 -429 0
416 430 -743 -744 0
416 430 744 -745 0
-416 -430 0
-430 743 -744 0
-430 744 745 0
431 744 -753 0
-431 -744 0
-431 753 0
432 433 -436 551 0
432 -433 -434 551 0
-432 -551 0
-432 -433 434 0
-432 433 436 0
-212 -213 429 433 0
212 -433 0
213 -433 0
-429 -433 0
434 435 -779 0
216 234 434 -779 0
-434 779 0
-216 -434 -435 0
-234 -434 -435 0
262 -420 435 781 0
262 435 772 781 0
-262 -435 0
-435 -781 0
420 -435 -772 0
429 436 779 -782 0
-429 436 779 782 0
-436 -779 0
-429 -436 -782 0
429 -436 782 0
401 437 -438 0
-269 437 -438 0
-215 437 -438 0
-437 438 0
215 269 -401 -437 0
-233 438 439 -492 0
438 439 -490 -492 0
-438 492 0
-438 -439 0
233 -438 490 0
439 466 -553 0
439 440 442 466 0
-439 -466 0
-439 -440 553 0
-439 -442 553 0
204 440 754 758 0
-204 440 441 754 -758 0
204 -440 -758 0
-204 -440 758 0
-440 -754 0
-440 -441 -758 0
-213 441 -755 0
-441 755 0
213 -441 0
-204 -441 442 443 -754 0
441 -442 0
-442 -443 0
-442 754 0
204 -442 0
264 443 444 -465 0
264 443 -449 -465 0
-264 -443 0
-443 465 0
-443 -444 449 0
444 -554 -718 0
444 -445 554 0
-444 445 554 0
-444 -554 718 0
445 -700 -731 0
445 -446 731 0
-445 700 -731 0
-445 446 731 0
446 -677 -732 0
446 -447 732 0
-446 677 -732 0
-446 447 732 0
447 -652 -733 0
447 -448 733 0
-447 652 -733 0
-447 448 733 0
448 -626 -734 0
448 -587 734 0
-448 587 734 0
-448 626 -734 0
-190 449 -554 0
449 -450 554 0
-449 450 554 0
190 -449 -554 0
-165 450 -731 0
450 -457 731 0
450 -451 731 0
165 -450 -731 0
-450 451 457 731 0
451 456 560 -732 0
451 -452 456 -732 0
-451 732 0
-451 -456 0
-451 452 -560 0
-168 452 453 0
-138 452 453 691 0
-452 -453 0
168 -452 -691 0
138 168 -452 0
453 -454 -689 0
-453 689 0
-453 454 0
-120 454 455 0
454 455 691 0
-454 -455 0
120 -454 -691 0
124 168 455 0
-124 -455 0
-168 -455 0
119 454 456 0
119 456 560 0
-119 -456 0
-454 -456 -560 0
457 -461 732 0
457 458 -460 732 0
-457 -732 0
-457 -458 461 0
-457 460 461 0
85 458 -459 -562 0
458 459 -562 -666 0
-458 562 0
-458 459 666 0
-85 -458 -459 0
121 459 -668 0
-459 668 0
-121 -459 0
-123 460 -562 -733 0
-85 460 562 -733 0
-460 733 0
123 -460 -562 0
85 -460 562 0
461 462 591 733 0
461 462 733 -734 0
-461 -462 0
-461 -733 0
-461 -591 734 0
462 463 -564 -734 0
62 462 463 -734 0
-462 734 0
-462 -463 0
-62 -462 564 0
-26 -60 463 -464 0
-60 -62 463 -464 0
-463 464 0
60 -463 0
26 62 -463 0
26 464 643 0
464 -564 642 643 0
-464 -643 0
-26 -464 564 0
-26 -464 -642 0
-234 465 756 0
465 748 756 0
-465 -756 0
234 -465 -748 0
-217 466 467 474 -480 0
-466 480 0
-466 -474 0
217 -466 0
-466 -467 0
449 467 468 0
-449 -467 0
-467 -468 0
199 468 -554 0
468 -469 554 0
-199 -468 -554 0
-468 469 554 0
169 469 -731 0
469 -470 731 0
-169 -469 -731 0
-469 470 731 0
147 470 -732 0
470 471 473 732 0
-147 -470 -732 0
-470 -473 732 0
-470 -471 732 0
471 -472 733 -734 0
471 590 733 734 0
-471 -733 0
-471 -590 734 0
-471 472 -734 0
-83 472 625 0
-472 -625 0
83 -472 0
-152 473 -733 0
-473 733 0
152 -473 0
444 474 -475 0
-444 -474 0
-474 475 0
194 475 -554 0
475 -476 554 0
-194 -475 -554 0
-475 476 554 0
172 476 -731 0
476 -477 731 0
-172 -476 -731 0
-476 477 731 0
133 477 -732 0
477 -478 732 0
-133 -477 -732 0
-477 478 732 0
100 478 -733 0
478 -479 733 0
-100 -478 -733 0
-478 479 733 0
34 479 -734 0
479 -592 734 0
-34 -479 -734 0
-479 592 734 0
-34 480 -486 0
-444 480 -486 0
480 -481 -486 0
-480 486 0
34 444 -480 481 0
481 482 554 0
-257 481 482 719 0
-481 -482 0
257 -481 -554 0
-481 -554 -719 0
482 -483 554 731 0
173 482 554 -731 0
-482 -554 0
-173 -482 -731 0
-482 483 731 0
483 484 732 0
138 483 484 0
-483 -484 0
-138 -483 -732 0
484 -485 602 734 0
-60 484 -485 -734 0
-484 485 0
60 -484 -734 0
-484 -602 734 0
485 732 733 0
-485 -732 0
-485 -733 0
204 423 486 -487 -489 0
-204 -486 0
-486 489 0
-486 487 0
-423 -486 0
422 487 488 0
-422 -487 0
-487 -488 0
316 488 736 0
-488 -736 0
-316 -488 0
416 -430 431 489 -553 0
430 -489 0
-431 -489 0
-489 553 0
-416 -489 0
-216 490 -744 0
401 490 -744 0
216 401 490 491 0
-216 -490 744 0
216 -401 -490 0
-490 -491 744 0
491 553 749 0
-491 -553 0
-491 -749 0
226 467 492 -496 0
467 492 -493 -496 0
-492 496 0
-467 -492 0
-226 -492 493 0
-205 493 494 -744 0
-141 493 494 -744 0
-493 744 0
-493 -494 0
141 205 -493 0
-205 494 -495 733 0
-74 -205 494 -733 0
205 -494 0
74 -494 -733 0
-494 495 733 0
-9 495 734 0
8 495 -734 0
-8 -495 -734 0
9 -495 734 0
496 -497 -502 -505 -547 0
-496 547 0
-496 497 0
-496 505 0
-496 502 0
-285 497 -498 501 0
300 497 -498 501 0
-497 498 0
-497 -501 0
285 -300 -497 0
236 285 498 0
498 -499 -500 0
236 498 -500 0
285 498 -499 0
-236 -498 499 0
-285 -498 500 0
-419 499 551 0
-499 -551 0
419 -499 0
287 500 794 0
500 786 794 0
-500 -794 0
-287 -500 -786 0
261 -313 501 0
-261 -501 0
313 -501 0
416 502 503 -504 0
416 502 503 -795 0
-502 -503 0
-416 -502 0
-502 504 795 0
236 -500 503 0
-236 -503 0
500 -503 0
-34 504 -786 0
504 786 797 0
-504 786 -797 0
34 -504 -786 0
-420 505 -506 -544 0
499 505 -506 -544 0
-505 544 0
-505 506 0
420 -499 -505 0
263 -415 506 -507 0
314 -415 506 -507 0
-506 507 0
415 -506 0
-263 -314 -506 0
-475 507 -508 543 0
-475 507 -508 -795 0
-507 508 0
475 -507 0
-507 -543 795 0
-444 508 509 510 -515 0
-508 515 0
-508 -510 0
444 -508 0
-508 -509 0
315 -426 509 0
315 509 789 0
-315 -509 0
426 -509 -789 0
316 510 -511 554 0
316 510 -554 727 0
-316 -510 0
-510 511 554 0
-510 -554 -727 0
511 710 -731 0
511 -512 731 0
-511 -710 -731 0
-511 512 731 0
512 694 -732 0
512 -513 732 0
-512 -694 -732 0
-512 513 732 0
513 671 -733 0
513 -514 733 0
-513 -671 -733 0
-513 514 733 0
514 614 734 0
514 646 -734 0
-514 -646 -734 0
-514 -614 734 0
-421 515 -516 538 -539 0
-515 539 0
421 -515 0
-515 516 0
-515 -538 0
226 516 -518 -520 0
516 -517 -518 -520 0
-516 520 0
-516 518 0
-226 -516 517 0
401 517 -744 0
517 -744 748 0
401 517 -748 -749 0
-517 744 748 0
-401 -517 -748 0
-517 744 749 0
488 518 -519 0
488 518 -748 -749 0
-488 -518 0
-518 519 749 0
-518 519 748 0
204 519 747 0
10 204 519 586 0
-204 -519 0
-10 -519 -747 0
-519 -586 -747 0
423 520 -521 -528 -537 0
-423 -520 0
-520 537 0
-520 528 0
-520 521 0
-204 521 -522 0
21 208 521 -522 0
-521 522 0
-21 204 -521 0
204 -208 -521 0
522 -523 -814 0
-34 522 -523 0
-392 522 -523 0
-522 523 0
34 392 -522 814 0
504 523 -524 -525 -526 0
-523 526 0
-523 524 0
-523 525 0
-504 -523 0
524 -745 0
524 -744 -746 0
-524 745 746 0
-524 744 745 0
525 -804 805 -809 0
-525 804 0
-525 -805 0
-525 809 0
526 527 -766 0
526 527 553 736 0
-526 -527 0
-526 -736 766 0
-526 -553 766 0
527 -551 789 0
527 -775 789 0
-527 -789 0
-527 551 775 0
210 528 -529 -531 -534 0
-210 -528 0
-528 534 0
-528 531 0
-528 529 0
416 529 -530 735 -743 0
-529 743 0
-416 -529 0
-529 -735 0
-529 530 0
422 530 -746 764 0
-530 746 0
-422 -530 0
-530 -764 0
531 -532 -533 -763 765 0
-531 533 0
-531 763 0
-531 532 0
-531 -765 0
532 -744 -745 0
-532 744 0
-532 745 0
533 -769 -787 788 -792 0
-533 792 0
-533 769 0
-533 787 0
-533 -788 0
534 -535 -536 548 -805 0
534 -535 -536 -548 805 0
-534 536 0
-534 548 805 0
-534 535 0
-534 -548 -805 0
535 552 -765 788 0
535 -552 765 788 0
535 550 -552 765 0
535 550 552 -765 0
-535 -552 -765 0
-535 552 765 0
-535 -550 -788 0
536 -550 -806 0
536 -788 798 0
536 -550 798 0
536 -788 -806 0
-536 550 788 0
-536 -798 806 0
537 -814 0
-336 -504 537 0
504 -537 814 0
336 -537 814 0
326 402 -425 538 0
326 -402 538 -742 0
-326 -538 0
402 425 -538 0
-402 -538 742 0
-315 418 539 -542 0
418 539 -540 -542 0
-539 542 0
-418 -539 0
315 -539 540 0
540 541 -798 -806 -817 0
-540 817 0
-540 -541 0
-540 798 0
-540 806 0
541 551 775 0
-541 -551 0
-541 -775 0
-427 -487 542 0
-487 542 -766 0
487 -542 0
427 -542 766 0
34 247 543 0
34 543 -796 0
-34 -543 0
-247 -543 796 0
314 474 544 -545 0
-264 474 544 -545 0
-544 545 0
-474 -544 0
264 -314 -544 0
545 546 -795 0
-418 543 545 546 0
-545 -546 0
418 -545 795 0
-543 -545 795 0
-475 546 772 0
-546 -772 0
475 -546 0
-414 420 547 0
-414 468 547 553 0
414 -547 0
-420 -468 -547 0
-420 -547 -553 0
1 2 0
-1 -2 0
933 0

